     Program PWSCF v.7.2 starts on 10Jan2024 at 13:24:51

     Reading input from opt.in

     Current dimensions of program PWSCF are:
     Max number of different atomic species (ntypx) = 10
     Max number of k-points (npk) =  40000
     Max angular momentum in pseudopotentials (lmaxx) =  4

     File ./MoTe2.bfgs deleted, as requested

     R & G space division:  proc/nbgrp/npool/nimage =       2
     Subspace diagonalization in iterative solution of the eigenvalue problem:
     a serial algorithm will be used

     Using Slab Decomposition

     bravais-lattice index     =            4
     lattice parameter (alat)  =       6.7274  a.u.
     unit-cell volume          =    1777.6181 (a.u.)^3
     number of atoms/cell      =            3
     number of atomic types    =            2
     number of electrons       =        46.00
     number of Kohn-Sham states=           28
     kinetic-energy cutoff     =      80.0000  Ry
     charge density cutoff     =     320.0000  Ry
     scf convergence threshold =      6.0E-10
     mixing beta               =       0.7000
     number of iterations used =            8  plain     mixing
     energy convergence thresh.=      3.0E-05
     force convergence thresh. =      1.0E-04
     press convergence thresh. =      5.0E-01
     Exchange-correlation= PBE
                           (   1   4   3   4   0   0   0)
     nstep                     =           50

     celldm(1)=   6.727425  celldm(2)=   0.000000  celldm(3)=   6.741573
     celldm(4)=   0.000000  celldm(5)=   0.000000  celldm(6)=   0.000000

     crystal axes: (cart. coord. in units of alat)
               a(1) = (   1.000000   0.000000   0.000000 )
               a(2) = (  -0.500000   0.866025   0.000000 )
               a(3) = (   0.000000   0.000000   6.741573 )

     reciprocal axes: (cart. coord. in units 2 pi/alat)
               b(1) = (  1.000000  0.577350  0.000000 )
               b(2) = (  0.000000  1.154701  0.000000 )
               b(3) = (  0.000000  0.000000  0.148333 )

     PseudoPot. # 1 for Mo read from file:
     ./Mo.upf
     MD5 check sum: 7ca7a9feba7bf08d88d14bc7fbf60c1e
     Pseudo is Norm-conserving + core correction, Zval = 14.0
     Generated using ONCVPSP code by D. R. Hamann
     Using radial grid of 1640 points,  6 beta functions with:
                l(1) =   0
                l(2) =   0
                l(3) =   1
                l(4) =   1
                l(5) =   2
                l(6) =   2

     PseudoPot. # 2 for Te read from file:
     ./Te.upf
     MD5 check sum: 5809bc2f3532353a97804e96cbe9e3f7
     Pseudo is Norm-conserving + core correction, Zval = 16.0
     Generated using ONCVPSP code by D. R. Hamann
     Using radial grid of 1294 points,  9 beta functions with:
                l(1) =   0
                l(2) =   0
                l(3) =   0
                l(4) =   1
                l(5) =   1
                l(6) =   2
                l(7) =   2
                l(8) =   3
                l(9) =   3

     atomic species   valence    mass     pseudopotential
        Mo            14.00    95.96000     Mo( 1.00)
        Te            16.00   127.60000     Te( 1.00)

      6 Sym. Ops. (no inversion) found

                                    s                        frac. trans.

      isym =  1     identity

 cryst.   s( 1) = (     1          0          0      )
                  (     0          1          0      )
                  (     0          0          1      )

 cart.    s( 1) = (  1.0000000  0.0000000  0.0000000 )
                  (  0.0000000  1.0000000  0.0000000 )
                  (  0.0000000  0.0000000  1.0000000 )

      isym =  2     120 deg rotation - cryst. axis [0,0,1]

[...]

      isym =  4     inv. 180 deg rotation - cart. axis [1,0,0]

[...]

      isym =  5     inv. 180 deg rotation - cryst. axis [0,1,0]

[...]

     point group C_3v (3m)
     there are  3 classes
     the character table:

       E     2C3   3s_v
A_1    1.00  1.00  1.00
A_2    1.00  1.00 -1.00
E      2.00 -1.00  0.00

     the symmetry operations in each class and the name of the first element:

     E        1
          identity
     2C3      2    3
          120 deg rotation - cryst. axis [0,0,1]
     3s_v     4    5    6
          inv. 180 deg rotation - cart. axis [1,0,0]

   Cartesian axes

     site n.     atom                  positions (alat units)
         1           Te  tau(   1) = (  -0.0000000   0.5773503   6.0529581  )
         2           Te  tau(   2) = (  -0.0000000   0.5773503   0.6886149  )
         3           Mo  tau(   3) = (   0.5000000   0.2886751   1.0216280  )

   Crystallographic axes

     site n.     atom                  positions (cryst. coord.)
         1           Te  tau(   1) = (  0.3333333  0.6666667  0.8978554  )
         2           Te  tau(   2) = (  0.3333333  0.6666667  0.1021446  )
         3           Mo  tau(   3) = (  0.6666667  0.3333333  0.1515415  )

     number of k points=    19  Marzari-Vanderbilt smearing, width (Ry)=  0.0147
                       cart. coord. in units 2pi/alat
        k(    1) = (   0.0000000   0.0000000   0.0000000), wk =   0.0138889
        k(    2) = (   0.0000000   0.0962250   0.0000000), wk =   0.0833333
        k(    3) = (   0.0000000   0.1924501   0.0000000), wk =   0.0833333
        k(    4) = (   0.0000000   0.2886751   0.0000000), wk =   0.0833333
        k(    5) = (   0.0000000   0.3849002   0.0000000), wk =   0.0833333
        k(    6) = (   0.0000000   0.4811252   0.0000000), wk =   0.0833333
        k(    7) = (   0.0000000  -0.5773503   0.0000000), wk =   0.0416667
        k(    8) = (   0.0833333   0.1443376   0.0000000), wk =   0.0833333
        k(    9) = (   0.0833333   0.2405626   0.0000000), wk =   0.1666667
        k(   10) = (   0.0833333   0.3367877   0.0000000), wk =   0.1666667
        k(   11) = (   0.0833333   0.4330127   0.0000000), wk =   0.1666667
        k(   12) = (   0.0833333   0.5292377   0.0000000), wk =   0.1666667
        k(   13) = (   0.1666667   0.2886751   0.0000000), wk =   0.0833333
        k(   14) = (   0.1666667   0.3849002   0.0000000), wk =   0.1666667
        k(   15) = (   0.1666667   0.4811252   0.0000000), wk =   0.1666667
        k(   16) = (   0.1666667   0.5773503   0.0000000), wk =   0.0833333
        k(   17) = (   0.2500000   0.4330127   0.0000000), wk =   0.0833333
        k(   18) = (   0.2500000   0.5292377   0.0000000), wk =   0.1666667
        k(   19) = (   0.3333333   0.5773503   0.0000000), wk =   0.0277778

                       cryst. coord.
        k(    1) = (   0.0000000   0.0000000   0.0000000), wk =   0.0138889
        k(    2) = (   0.0000000   0.0833333   0.0000000), wk =   0.0833333
        k(    3) = (   0.0000000   0.1666667   0.0000000), wk =   0.0833333
        k(    4) = (   0.0000000   0.2500000   0.0000000), wk =   0.0833333
        k(    5) = (   0.0000000   0.3333333   0.0000000), wk =   0.0833333
        k(    6) = (   0.0000000   0.4166667   0.0000000), wk =   0.0833333
        k(    7) = (   0.0000000  -0.5000000   0.0000000), wk =   0.0416667
        k(    8) = (   0.0833333   0.0833333   0.0000000), wk =   0.0833333
        k(    9) = (   0.0833333   0.1666667   0.0000000), wk =   0.1666667
        k(   10) = (   0.0833333   0.2500000   0.0000000), wk =   0.1666667
        k(   11) = (   0.0833333   0.3333333   0.0000000), wk =   0.1666667
        k(   12) = (   0.0833333   0.4166667   0.0000000), wk =   0.1666667
        k(   13) = (   0.1666667   0.1666667   0.0000000), wk =   0.0833333
        k(   14) = (   0.1666667   0.2500000   0.0000000), wk =   0.1666667
        k(   15) = (   0.1666667   0.3333333   0.0000000), wk =   0.1666667
        k(   16) = (   0.1666667   0.4166667   0.0000000), wk =   0.0833333
        k(   17) = (   0.2500000   0.2500000   0.0000000), wk =   0.0833333
        k(   18) = (   0.2500000   0.3333333   0.0000000), wk =   0.1666667
        k(   19) = (   0.3333333   0.3333333   0.0000000), wk =   0.0277778

     Initial potential from superposition of free atoms

     starting charge      45.9982, renormalised to      46.0000

     negative rho (up, down):  5.389E-05 0.000E+00
     Starting wfcs are   28 randomized atomic wfcs

     Self-consistent Calculation

     iteration #  1     ecut=    80.00 Ry     beta= 0.70
     Davidson diagonalization with overlap

     ethr =  1.00E-02,  avg # of iterations =  3.8

     Threshold (ethr) on eigenvalues was too large:
     Diagonalizing with lowered threshold

     Davidson diagonalization with overlap

[...]

     negative rho (up, down):  8.820E-06 0.000E+00

     total energy              =    -560.15826040 Ry
     estimated scf accuracy    <       0.20226376 Ry

[...]

     End of self-consistent calculation

          k = 0.0000 0.0000 0.0000 ( 21573 PWs)   bands (ev):

   -60.2132 -36.6986 -36.6986 -36.5054 -36.4730 -36.4730 -35.9447 -35.9447
   -35.7641 -35.7641 -35.7170 -34.4376 -34.2494 -34.2494 -15.0987 -13.5966
    -4.8505  -2.9803  -2.9803  -1.6520  -0.0640  -0.0640  -0.0481   2.0872
     2.9450   2.9450   4.2834   4.6924

     occupation numbers
     1.0000   1.0000   1.0000   1.0000   1.0000   1.0000   1.0000   1.0000
     1.0000   1.0000   1.0000   1.0000   1.0000   1.0000   1.0000   1.0000
     1.0000   1.0000   1.0000   1.0000   1.0457   1.0457   1.0531   0.0000
     0.0000   0.0000   0.0000   0.0000

[...]

     the Fermi energy is     0.3261 ev

!    total energy              =    -560.25035768 Ry
     estimated scf accuracy    <          2.8E-10 Ry
     smearing contrib. (-TS)   =       0.00009873 Ry
     internal energy E=F+TS    =    -560.25045641 Ry

     The total energy is F=E-TS. E is the sum of the following terms:
     one-electron contribution =   -2342.25023129 Ry
     hartree contribution      =    1170.42557900 Ry
     xc contribution           =    -119.06778744 Ry
     ewald contribution        =     730.64198331 Ry

     convergence has been achieved in  15 iterations

     Forces acting on atoms (cartesian axes, Ry/au):

     atom    1 type  2   force =     0.00000000    0.00000000    0.00398417
     atom    2 type  2   force =     0.00000000    0.00000000   -0.26090607
     atom    3 type  1   force =     0.00000000    0.00000000    0.25692190
     The non-local contrib.  to forces
     atom    1 type  2   force =     0.00000000    0.00000000    0.02138296
     atom    2 type  2   force =     0.00000000    0.00000000    0.19399528
     atom    3 type  1   force =     0.00000000   -0.00000000   -0.27008968
     The ionic contribution  to forces
     atom    1 type  2   force =     0.00000000   -0.00000000  -83.94304159
     atom    2 type  2   force =     0.00000044   -0.00000026   -1.36862785
     atom    3 type  1   force =    -0.00000044    0.00000026   85.31166944
     The local contribution  to forces
     atom    1 type  2   force =     0.00000372   -0.00000215   83.92630502
     atom    2 type  2   force =     0.00000350   -0.00000202    0.92439139
     atom    3 type  1   force =    -0.00000231    0.00000134  -84.79946267
     The core correction contribution to forces
     atom    1 type  2   force =     0.00000019   -0.00000011   -0.00062648
[...]
Te            0.3333333300        0.6666666700        0.0812309757
Mo            0.6666666700        0.3333333300        0.1636006823

     Writing config-only to output data dir ./MoTe2.save/
     NEW-OLD atomic charge density approx. for the potential

     negative rho (up, down):  1.627E-06 0.000E+00
     extrapolated charge   45.93757, renormalised to   46.00000

[...]

     Total force =     0.000044     Total SCF correction =     0.000014
     SCF correction compared to forces is large: reduce conv_thr to get better values

[...]

     Energy error            =      4.8E-06 Ry
     Gradient error          =      3.1E-05 Ry/Bohr
     Cell gradient error     =      1.2E-01 kbar
ibrav =      4
 celldm(1) =      6.09193533
 celldm(3) =      7.13924778
Input lattice vectors:
     0.90553746     0.00000000     0.00000000
    -0.45276873     0.78421844     0.00000000
     0.00000000     0.00000000     6.46485628
New lattice vectors in INITIAL alat:
     0.90553746     0.00000000     0.00000000
    -0.45276873     0.78421844     0.00000000
     0.00000000     0.00000000     6.46485628
New lattice vectors in NEW alat (for information only):
     1.00000000     0.00000000     0.00000000
    -0.50000000     0.86602540     0.00000000
     0.00000000     0.00000000     7.13924778
Discrepancy in bohr =     0.000000    0.000000    0.000000

     bfgs converged in  25 scf cycles and  24 bfgs steps
     (criteria: energy <  3.0E-05 Ry, force <  1.0E-04 Ry/Bohr, cell <  5.0E-01 kbar)

     End of BFGS Geometry Optimization

     Final enthalpy           =    -560.4354950125 Ry

     File ./MoTe2.bfgs deleted, as requested
Begin final coordinates
     new unit-cell volume =   1397.81256 a.u.^3 (   207.13445 Ang^3 )
     density =      2.81515 g/cm^3

CELL_PARAMETERS (alat=  6.72742500)
   0.905537457   0.000000000   0.000000000
  -0.452768728   0.784218442   0.000000000
   0.000000000   0.000000000   6.464856278

ATOMIC_POSITIONS (crystal)
Te            0.3333333300        0.6666666700        0.9067098320
Te            0.3333333300        0.6666666700        0.0812309757
Mo            0.6666666700        0.3333333300        0.1636006823
End final coordinates

     Writing config-only to output data dir ./MoTe2.save/

     Final scf calculation at the relaxed structure.
     The G-vectors are recalculated for the final unit cell
     Results may differ from those at the preceding step.

     Using Slab Decomposition

     bravais-lattice index     =            4
     lattice parameter (alat)  =       6.7274  a.u.
     unit-cell volume          =    1397.8126 (a.u.)^3
     number of atoms/cell      =            3
     number of atomic types    =            2
     number of electrons       =        46.00
     number of Kohn-Sham states=           28
     kinetic-energy cutoff     =      80.0000  Ry
     charge density cutoff     =     320.0000  Ry
     scf convergence threshold =      9.6E-12
     mixing beta               =       0.7000
     number of iterations used =            8  plain     mixing
     press convergence thresh. =      5.0E-01
     Exchange-correlation= PBE
                           (   1   4   3   4   0   0   0)

     celldm(1)=   6.727425  celldm(2)=   0.000000  celldm(3)=   6.741573
     celldm(4)=   0.000000  celldm(5)=   0.000000  celldm(6)=   0.000000

     crystal axes: (cart. coord. in units of alat)
               a(1) = (   0.905537   0.000000   0.000000 )
               a(2) = (  -0.452769   0.784218   0.000000 )
               a(3) = (   0.000000   0.000000   6.464856 )

     reciprocal axes: (cart. coord. in units 2 pi/alat)
               b(1) = (  1.104317  0.637577  0.000000 )
               b(2) = (  0.000000  1.275155  0.000000 )
               b(3) = (  0.000000  0.000000  0.154682 )

     PseudoPot. # 1 for Mo read from file:
     ./Mo.upf
     MD5 check sum: 7ca7a9feba7bf08d88d14bc7fbf60c1e
     Pseudo is Norm-conserving + core correction, Zval = 14.0
     Generated using ONCVPSP code by D. R. Hamann
     Using radial grid of 1640 points,  6 beta functions with:
                l(1) =   0
                l(2) =   0
                l(3) =   1
                l(4) =   1
                l(5) =   2
                l(6) =   2

     PseudoPot. # 2 for Te read from file:
     ./Te.upf
     MD5 check sum: 5809bc2f3532353a97804e96cbe9e3f7
     Pseudo is Norm-conserving + core correction, Zval = 16.0
     Generated using ONCVPSP code by D. R. Hamann
     Using radial grid of 1294 points,  9 beta functions with:
                l(1) =   0
                l(2) =   0
                l(3) =   0
                l(4) =   1
                l(5) =   1
                l(6) =   2
                l(7) =   2
                l(8) =   3
                l(9) =   3

     atomic species   valence    mass     pseudopotential
        Mo            14.00    95.96000     Mo( 1.00)
        Te            16.00   127.60000     Te( 1.00)

      6 Sym. Ops. (no inversion) found

                                    s                        frac. trans.

      isym =  1     identity

[...]

      isym =  3     120 deg rotation - cryst. axis [0,0,-1]

[...]

      isym =  4     inv. 180 deg rotation - cart. axis [1,0,0]

[...]

      isym =  6     inv. 180 deg rotation - cryst. axis [1,1,0]

 cryst.   s( 6) = (     0         -1          0      )
                  (    -1          0          0      )
                  (     0          0          1      )

 cart.    s( 6) = (  0.5000000 -0.8660254  0.0000000 )
                  ( -0.8660254 -0.5000000  0.0000000 )
                  (  0.0000000  0.0000000  1.0000000 )

     point group C_3v (3m)
     there are  3 classes
     the character table:

       E     2C3   3s_v
A_1    1.00  1.00  1.00
A_2    1.00  1.00 -1.00
E      2.00 -1.00  0.00

     the symmetry operations in each class and the name of the first element:

     E        1
          identity
     2C3      2    3
          120 deg rotation - cryst. axis [0,0,1]
     3s_v     4    5    6
          inv. 180 deg rotation - cart. axis [1,0,0]

   Cartesian axes

     site n.     atom                  positions (alat units)
         1           Te  tau(   1) = (  -0.0000000   0.5228123   5.8617487  )
         2           Te  tau(   2) = (  -0.0000000   0.5228123   0.5251466  )
         3           Mo  tau(   3) = (   0.4527687   0.2614061   1.0576549  )

   Crystallographic axes

     site n.     atom                  positions (cryst. coord.)
         1           Te  tau(   1) = (  0.3333333  0.6666667  0.9067098  )
         2           Te  tau(   2) = (  0.3333333  0.6666667  0.0812310  )
         3           Mo  tau(   3) = (  0.6666667  0.3333333  0.1636007  )

     number of k points=    19  Marzari-Vanderbilt smearing, width (Ry)=  0.0147
                       cart. coord. in units 2pi/alat
        k(    1) = (   0.0000000   0.0000000   0.0000000), wk =   0.0138889
        k(    2) = (   0.0000000   0.1062629   0.0000000), wk =   0.0833333
        k(    3) = (   0.0000000   0.2125258   0.0000000), wk =   0.0833333
        k(    4) = (   0.0000000   0.3187887   0.0000000), wk =   0.0833333
        k(    5) = (   0.0000000   0.4250516   0.0000000), wk =   0.0833333
        k(    6) = (   0.0000000   0.5313145   0.0000000), wk =   0.0833333
        k(    7) = (   0.0000000  -0.6375775   0.0000000), wk =   0.0416667
        k(    8) = (   0.0920264   0.1593944   0.0000000), wk =   0.0833333
        k(    9) = (   0.0920264   0.2656573   0.0000000), wk =   0.1666667
        k(   10) = (   0.0920264   0.3719202   0.0000000), wk =   0.1666667
        k(   11) = (   0.0920264   0.4781831   0.0000000), wk =   0.1666667
        k(   12) = (   0.0920264   0.5844460   0.0000000), wk =   0.1666667
        k(   13) = (   0.1840528   0.3187887   0.0000000), wk =   0.0833333
        k(   14) = (   0.1840528   0.4250516   0.0000000), wk =   0.1666667
        k(   15) = (   0.1840528   0.5313145   0.0000000), wk =   0.1666667
        k(   16) = (   0.1840528   0.6375775   0.0000000), wk =   0.0833333
        k(   17) = (   0.2760791   0.4781831   0.0000000), wk =   0.0833333
        k(   18) = (   0.2760791   0.5844460   0.0000000), wk =   0.1666667
        k(   19) = (   0.3681055   0.6375775   0.0000000), wk =   0.0277778

                       cryst. coord.
        k(    1) = (   0.0000000   0.0000000   0.0000000), wk =   0.0138889
        k(    2) = (   0.0000000   0.0833333   0.0000000), wk =   0.0833333
        k(    3) = (   0.0000000   0.1666667   0.0000000), wk =   0.0833333
        k(    4) = (   0.0000000   0.2500000   0.0000000), wk =   0.0833333
        k(    5) = (   0.0000000   0.3333333   0.0000000), wk =   0.0833333
        k(    6) = (   0.0000000   0.4166667   0.0000000), wk =   0.0833333
        k(    7) = (   0.0000000  -0.5000000   0.0000000), wk =   0.0416667
        k(    8) = (   0.0833333   0.0833333   0.0000000), wk =   0.0833333
        k(    9) = (   0.0833333   0.1666667   0.0000000), wk =   0.1666667
        k(   10) = (   0.0833333   0.2500000   0.0000000), wk =   0.1666667
        k(   11) = (   0.0833333   0.3333333   0.0000000), wk =   0.1666667
        k(   12) = (   0.0833333   0.4166667   0.0000000), wk =   0.1666667
        k(   13) = (   0.1666667   0.1666667   0.0000000), wk =   0.0833333
        k(   14) = (   0.1666667   0.2500000   0.0000000), wk =   0.1666667
        k(   15) = (   0.1666667   0.3333333   0.0000000), wk =   0.1666667
        k(   16) = (   0.1666667   0.4166667   0.0000000), wk =   0.0833333
        k(   17) = (   0.2500000   0.2500000   0.0000000), wk =   0.0833333
        k(   18) = (   0.2500000   0.3333333   0.0000000), wk =   0.1666667
        k(   19) = (   0.3333333   0.3333333   0.0000000), wk =   0.0277778

     Initial potential from superposition of free atoms

     starting charge      45.9982, renormalised to      46.0000

     negative rho (up, down):  4.586E-05 0.000E+00
     Starting wfcs are   28 randomized atomic wfcs

     Self-consistent Calculation

[...]

     c_bands:  1 eigenvalues not converged
     c_bands:  1 eigenvalues not converged
     c_bands:  1 eigenvalues not converged
     ethr =  1.00E-06,  avg # of iterations = 16.7

[...]

     negative rho (up, down):  1.251E-08 0.000E+00

[...]

     total energy              =    -560.43524815 Ry
     estimated scf accuracy    <          3.5E-11 Ry

     iteration # 16     ecut=    80.00 Ry     beta= 0.70
     Davidson diagonalization with overlap

     ethr =  1.00E-13,  avg # of iterations =  4.3

     End of self-consistent calculation

[...]

          k = 0.3681 0.6376 0.0000 ( 16809 PWs)   bands (ev):

   -59.1815 -35.2758 -35.2580 -35.2118 -35.2106 -35.1470 -34.5762 -34.5762
   -34.4459 -34.4459 -34.3842 -33.3829 -33.2774 -33.2502 -11.9003 -10.4859
    -3.7779  -3.4334  -1.6152  -1.6129  -1.3400   0.9036   0.9461   2.0869
     2.1742   2.7917   5.2685   6.6030

     occupation numbers
     1.0000   1.0000   1.0000   1.0000   1.0000   1.0000   1.0000   1.0000
     1.0000   1.0000   1.0000   1.0000   1.0000   1.0000   1.0000   1.0000
     1.0000   1.0000   1.0000   1.0000   1.0000   1.0000   1.0000   0.0033
     0.0004   0.0000   0.0000   0.0000

     the Fermi energy is     1.7792 ev

!    total energy              =    -560.43524815 Ry
     estimated scf accuracy    <          8.9E-12 Ry
     smearing contrib. (-TS)   =       0.00019209 Ry
     internal energy E=F+TS    =    -560.43544024 Ry

     The total energy is F=E-TS. E is the sum of the following terms:
     one-electron contribution =   -2613.25799476 Ry
     hartree contribution      =    1307.95580537 Ry
     xc contribution           =    -118.88395702 Ry
     ewald contribution        =     863.75070617 Ry

     convergence has been achieved in  16 iterations

     Forces acting on atoms (cartesian axes, Ry/au):

     atom    1 type  2   force =     0.00000000    0.00000000    0.00003968
     atom    2 type  2   force =     0.00000000    0.00000000   -0.00000963
     atom    3 type  1   force =     0.00000000    0.00000000   -0.00003006
     The non-local contrib.  to forces
     atom    1 type  2   force =     0.00000000   -0.00000000    0.02349657
     atom    2 type  2   force =     0.00000000    0.00000000    0.36467122
     atom    3 type  1   force =     0.00000000    0.00000000   -0.18254670
     The ionic contribution  to forces
     atom    1 type  2   force =     0.00000000   -0.00000000 -107.81210246
     atom    2 type  2   force =     0.00000012   -0.00000007   -4.50680634
     atom    3 type  1   force =    -0.00000012    0.00000007  112.31890880
     The local contribution  to forces
     atom    1 type  2   force =     0.00000327   -0.00000189  107.78942609
     atom    2 type  2   force =     0.00000321   -0.00000185    4.16426033
     atom    3 type  1   force =    -0.00000215    0.00000124 -112.14624553
     The core correction contribution to forces
     atom    1 type  2   force =     0.00000017   -0.00000010   -0.00080352
     atom    2 type  2   force =     0.00000017   -0.00000010   -0.02212698
     atom    3 type  1   force =     0.00000004   -0.00000003    0.00985854
     The Hubbard contrib.    to forces
     atom    1 type  2   force =     0.00000000    0.00000000    0.00000000
     atom    2 type  2   force =     0.00000000    0.00000000    0.00000000
     atom    3 type  1   force =     0.00000000    0.00000000    0.00000000
     The SCF correction term to forces
     atom    1 type  2   force =    -0.00000000    0.00000000    0.00002259
     atom    2 type  2   force =    -0.00000000    0.00000000   -0.00000828
     atom    3 type  1   force =     0.00000000   -0.00000000   -0.00000559

     Total force =     0.000051     Total SCF correction =     0.000025
     SCF correction compared to forces is large: reduce conv_thr to get better values

     Computing stress (Cartesian axis) and pressure

          total   stress  (Ry/bohr**3)                   (kbar)     P=       -0.26
  -0.00000140   0.00000000   0.00000000           -0.21        0.00        0.00
  -0.00000000  -0.00000140  -0.00000000           -0.00       -0.21       -0.00
   0.00000000   0.00000000  -0.00000242            0.00        0.00       -0.36

     kinetic stress (kbar)  19118.90     -0.00     -0.00
                               -0.00  19118.90      0.00
                               -0.00      0.00  19137.49

     local   stress (kbar)-257200.33     -0.00      0.00
                               -0.00-257200.33     -0.00
                                0.00     -0.00 256329.56

     nonloc. stress (kbar)  -6494.33      0.00      0.00
                                0.00  -6494.33      0.00
                                0.00      0.00  -6426.13

     hartree stress (kbar) 129950.27      0.00      0.00
                                0.00 129950.27     -0.00
                                0.00     -0.00-122251.94

     exc-cor stress (kbar)   3788.56      0.00     -0.00
                                0.00   3788.56      0.00
                               -0.00      0.00   3783.41

     corecor stress (kbar)  -6599.76      0.00     -0.00
                                0.00  -6599.76      0.00
                               -0.00      0.00  -6600.42

     ewald   stress (kbar) 117436.50      0.00     -0.00
                                0.00 117436.50      0.00
                               -0.00      0.00-143972.33

     hubbard stress (kbar)      0.00      0.00      0.00
                                0.00      0.00      0.00
                                0.00      0.00      0.00

     DFT-D   stress (kbar)      0.00      0.00      0.00
                                0.00      0.00      0.00
                                0.00      0.00      0.00

     XDM     stress (kbar)      0.00      0.00      0.00
                                0.00      0.00      0.00
                                0.00      0.00      0.00

     dft-nl  stress (kbar)      0.00      0.00      0.00
                                0.00      0.00      0.00
                                0.00      0.00      0.00

     TS-vdW  stress (kbar)      0.00      0.00      0.00
                                0.00      0.00      0.00
                                0.00      0.00      0.00

     MDB     stress (kbar)      0.00      0.00      0.00
                                0.00      0.00      0.00
                                0.00      0.00      0.00

     3D-RISM stress (kbar)      0.00      0.00      0.00
                                0.00      0.00      0.00
                                0.00      0.00      0.00

     Writing all to output data dir ./MoTe2.save/

     General routines

     Parallel routines

   This run was terminated on:  20: 6:17  10Jan2024

   JOB DONE.